
Gurobi 9.5.1 (linux64) logging started Tue Jul  5 11:53:04 2022

Set parameter LogFile to value "../results/logs/log_CA-HepPh_4_250_2022_07_05_11_53.log"
Gurobi Optimizer version 9.5.1 build v9.5.1rc2 (linux64)
Thread count: 8 physical cores, 8 logical processors, using up to 8 threads
Optimize a model with 2017 rows, 24012 columns and 15787 nonzeros
Model fingerprint: 0x11d216de
Coefficient statistics:
  Matrix range     [1e+00, 4e+00]
  Objective range  [1e+00, 1e+00]
  Bounds range     [1e+00, 1e+00]
  RHS range        [1e+00, 2e+02]
Presolve removed 238 rows and 22238 columns
Presolve time: 0.01s
Presolved: 1779 rows, 1774 columns, 6535 nonzeros

Iteration    Objective       Primal Inf.    Dual Inf.      Time
       0    7.2250000e+03   2.350000e+02   0.000000e+00      0s
     427    7.0658824e+03   0.000000e+00   0.000000e+00      0s

Use crossover to convert LP symmetric solution to basic solution...
Crossover log...

       0 DPushes remaining with DInf 0.0000000e+00                 0s

      25 PPushes remaining with PInf 0.0000000e+00                 0s
       0 PPushes remaining with PInf 0.0000000e+00                 0s

  Push phase complete: Pinf 0.0000000e+00, Dinf 2.7443325e-15      0s

Iteration    Objective       Primal Inf.    Dual Inf.      Time
     573    7.0658824e+03   0.000000e+00   0.000000e+00      0s

Solved in 573 iterations and 0.02 seconds (0.01 work units)
Optimal objective  7.065882383e+03
